(set-logic QF_FP)
(set-info :source |Random FP created by PyMPF|)
(set-info :category random)
(set-info :status unsat)
(declare-const x Float32)
(assert (= x (_ +oo 8 24)))
(declare-const y Float32)
(assert (= y (fp #b1 #b11000101 #b01101001011010001110001)))
(declare-const z Float32)
(assert (= z ((_ to_fp 8 24) #x82D7B9DD)))
(declare-const result Float32)
(assert (= result (fp.fma RTN x y z)))
(assert (not (= result (fp #b1 #b11111111 #b00000000000000000000000))))
(check-sat)
(exit)
